32      4       
15      12      20      12      
0       0       0       0       0       2       2       3       
8       0       9       0       4       3       4       5       6       
3       15      0       17      0       3       5       6       7       
9       0       12      20      0       3       7       9       13      
6       13      0       20      0       7       9       11      12      13      15      19      23      
3       0       6       0       4       5       8       14      19      20      24      
1       0       5       20      0       11      10      11      12      14      15      18      19      21      22      23      24      
4       0       0       7       12      10      10      11      12      13      15      16      17      21      22      23      
7       0       12      13      0       8       10      14      16      17      18      20      21      24      
6       15      12      0       0       5       25      26      27      28      31      
5       0       7       12      0       5       25      26      27      28      31      
10      0       12      0       4       5       25      26      27      28      31      
9       7       0       19      0       5       25      26      27      28      31      
1       9       0       0       9       4       26      27      28      31      
10      15      0       6       0       4       25      26      27      28      
3       8       5       0       0       4       25      26      28      31      
4       0       4       20      0       4       25      26      27      28      
3       8       11      0       0       4       25      26      28      31      
6       0       11      0       11      4       26      27      30      31      
8       9       9       0       0       4       26      27      30      31      
8       0       0       20      10      3       25      26      27      
6       0       0       6       12      3       25      26      27      
2       8       0       20      0       2       26      28      
9       15      0       20      0       2       25      27      
4       0       12      0       8       2       29      30      
5       15      0       0       12      1       29      
4       15      0       0       12      1       29      
1       0       8       0       12      1       30      
10      0       0       5       10      1       32      
1       13      0       0       12      1       32      
10      4       0       0       3       1       32      
0       0       0       0       0       0       
